5 6 131
4 2 1 3 2 3 3 3 4 13 43 43 76 76 103 103 124 
6 3 1 4 1 4 2 4 3 4 4 5 5 4 25 26 47 47 65 65 92 92 110 110 131 
5 5 1 5 2 2 2 5 4 1 3 5 29 29 53 53 80 83 107 110 128 
4 1 1 5 3 1 2 2 3 21 54 56 80 80 107 107 131 
10 5 1 2 1 2 1 4 1 4 1 2 2 2 2 5 3 5 5 5 5 0 5 5 11 11 13 13 22 22 26 36 43 43 46 53 56 104 107 107 110 
9 3 1 1 1 1 1 3 2 3 2 5 4 5 4 2 3 1 3 0 4 4 14 14 21 21 27 27 34 75 80 80 83 83 86 107 110 
